Minimize
 obj: + 2.535 pump1_time1 + 6.253 pump2_time1 + 5.577 pump3_time1 
 + 5.577 pump4_time1 + 3.7180000000000004 pump5_time1 + 5.577 pump6_time1 
 + 3.7180000000000004 pump7_time1 + 2.535 pump1_time2 + 6.253 pump2_time2 
 + 5.577 pump3_time2 + 5.577 pump4_time2 + 3.7180000000000004 pump5_time2 
 + 5.577 pump6_time2 + 3.7180000000000004 pump7_time2 + 2.535 pump1_time3 
 + 6.253 pump2_time3 + 5.577 pump3_time3 + 5.577 pump4_time3 
 + 3.7180000000000004 pump5_time3 + 5.577 pump6_time3 
 + 3.7180000000000004 pump7_time3 + 2.535 pump1_time4 + 6.253 pump2_time4 
 + 5.577 pump3_time4 + 5.577 pump4_time4 + 3.7180000000000004 pump5_time4 
 + 5.577 pump6_time4 + 3.7180000000000004 pump7_time4 + 2.535 pump1_time5 
 + 6.253 pump2_time5 + 5.577 pump3_time5 + 5.577 pump4_time5 
 + 3.7180000000000004 pump5_time5 + 5.577 pump6_time5 
 + 3.7180000000000004 pump7_time5 + 2.535 pump1_time6 + 6.253 pump2_time6 
 + 5.577 pump3_time6 + 5.577 pump4_time6 + 3.7180000000000004 pump5_time6 
 + 5.577 pump6_time6 + 3.7180000000000004 pump7_time6 + 2.535 pump1_time7 
 + 6.253 pump2_time7 + 5.577 pump3_time7 + 5.577 pump4_time7 
 + 3.7180000000000004 pump5_time7 + 5.577 pump6_time7 
 + 3.7180000000000004 pump7_time7 + 4.244999999999999 pump1_time8 
 + 10.470999999999998 pump2_time8 + 9.338999999999999 pump3_time8 
 + 9.338999999999999 pump4_time8 + 6.225999999999999 pump5_time8 
 + 9.338999999999999 pump6_time8 + 6.225999999999999 pump7_time8 
 + 4.244999999999999 pump1_time9 + 10.470999999999998 pump2_time9 
 + 9.338999999999999 pump3_time9 + 9.338999999999999 pump4_time9 
 + 6.225999999999999 pump5_time9 + 9.338999999999999 pump6_time9 
 + 6.225999999999999 pump7_time9 + 4.244999999999999 pump1_time10 
 + 10.470999999999998 pump2_time10 + 9.338999999999999 pump3_time10 
 + 9.338999999999999 pump4_time10 + 6.225999999999999 pump5_time10 
 + 9.338999999999999 pump6_time10 + 6.225999999999999 pump7_time10 
 + 4.244999999999999 pump1_time11 + 10.470999999999998 pump2_time11 
 + 9.338999999999999 pump3_time11 + 9.338999999999999 pump4_time11 
 + 6.225999999999999 pump5_time11 + 9.338999999999999 pump6_time11 
 + 6.225999999999999 pump7_time11 + 4.244999999999999 pump1_time12 
 + 10.470999999999998 pump2_time12 + 9.338999999999999 pump3_time12 
 + 9.338999999999999 pump4_time12 + 6.225999999999999 pump5_time12 
 + 9.338999999999999 pump6_time12 + 6.225999999999999 pump7_time12 
 + 4.244999999999999 pump1_time13 + 10.470999999999998 pump2_time13 
 + 9.338999999999999 pump3_time13 + 9.338999999999999 pump4_time13 
 + 6.225999999999999 pump5_time13 + 9.338999999999999 pump6_time13 
 + 6.225999999999999 pump7_time13 + 2.535 pump1_time14 + 6.253 pump2_time14 
 + 5.577 pump3_time14 + 5.577 pump4_time14 + 3.7180000000000004 pump5_time14 
 + 5.577 pump6_time14 + 3.7180000000000004 pump7_time14 + 2.535 pump1_time15 
 + 6.253 pump2_time15 + 5.577 pump3_time15 + 5.577 pump4_time15 
 + 3.7180000000000004 pump5_time15 + 5.577 pump6_time15 
 + 3.7180000000000004 pump7_time15 + 2.535 pump1_time16 + 6.253 pump2_time16 
 + 5.577 pump3_time16 + 5.577 pump4_time16 + 3.7180000000000004 pump5_time16 
 + 5.577 pump6_time16 + 3.7180000000000004 pump7_time16 + 5.04 pump1_time17 
 + 12.432 pump2_time17 + 11.088000000000001 pump3_time17 
 + 11.088000000000001 pump4_time17 + 7.392 pump5_time17 
 + 11.088000000000001 pump6_time17 + 7.392 pump7_time17 + 5.04 pump1_time18 
 + 12.432 pump2_time18 + 11.088000000000001 pump3_time18 
 + 11.088000000000001 pump4_time18 + 7.392 pump5_time18 
 + 11.088000000000001 pump6_time18 + 7.392 pump7_time18 + 5.04 pump1_time19 
 + 12.432 pump2_time19 + 11.088000000000001 pump3_time19 
 + 11.088000000000001 pump4_time19 + 7.392 pump5_time19 
 + 11.088000000000001 pump6_time19 + 7.392 pump7_time19 + 5.04 pump1_time20 
 + 12.432 pump2_time20 + 11.088000000000001 pump3_time20 
 + 11.088000000000001 pump4_time20 + 7.392 pump5_time20 
 + 11.088000000000001 pump6_time20 + 7.392 pump7_time20 + 5.04 pump1_time21 
 + 12.432 pump2_time21 + 11.088000000000001 pump3_time21 
 + 11.088000000000001 pump4_time21 + 7.392 pump5_time21 
 + 11.088000000000001 pump6_time21 + 7.392 pump7_time21 + 2.535 pump1_time22 
 + 6.253 pump2_time22 + 5.577 pump3_time22 + 5.577 pump4_time22 
 + 3.7180000000000004 pump5_time22 + 5.577 pump6_time22 
 + 3.7180000000000004 pump7_time22 + 2.535 pump1_time23 + 6.253 pump2_time23 
 + 5.577 pump3_time23 + 5.577 pump4_time23 + 3.7180000000000004 pump5_time23 
 + 5.577 pump6_time23 + 3.7180000000000004 pump7_time23 + 2.535 pump1_time24 
 + 6.253 pump2_time24 + 5.577 pump3_time24 + 5.577 pump4_time24 
 + 3.7180000000000004 pump5_time24 + 5.577 pump6_time24 
 + 3.7180000000000004 pump7_time24 

Subject To 
 pump1_on_at_least_1h_per_day: + 1 pump1_time1 + 1 pump1_time2 + 1 pump1_time3 
 + 1 pump1_time4 + 1 pump1_time5 + 1 pump1_time6 + 1 pump1_time7 
 + 1 pump1_time8 + 1 pump1_time9 + 1 pump1_time10 + 1 pump1_time11 
 + 1 pump1_time12 + 1 pump1_time13 + 1 pump1_time14 + 1 pump1_time15 
 + 1 pump1_time16 + 1 pump1_time17 + 1 pump1_time18 + 1 pump1_time19 
 + 1 pump1_time20 + 1 pump1_time21 + 1 pump1_time22 + 1 pump1_time23 
 + 1 pump1_time24  >= 1.0
 pump2_on_at_least_1h_per_day: + 1 pump2_time1 + 1 pump2_time2 + 1 pump2_time3 
 + 1 pump2_time4 + 1 pump2_time5 + 1 pump2_time6 + 1 pump2_time7 
 + 1 pump2_time8 + 1 pump2_time9 + 1 pump2_time10 + 1 pump2_time11 
 + 1 pump2_time12 + 1 pump2_time13 + 1 pump2_time14 + 1 pump2_time15 
 + 1 pump2_time16 + 1 pump2_time17 + 1 pump2_time18 + 1 pump2_time19 
 + 1 pump2_time20 + 1 pump2_time21 + 1 pump2_time22 + 1 pump2_time23 
 + 1 pump2_time24  >= 1.0
 pump3_on_at_least_1h_per_day: + 1 pump3_time1 + 1 pump3_time2 + 1 pump3_time3 
 + 1 pump3_time4 + 1 pump3_time5 + 1 pump3_time6 + 1 pump3_time7 
 + 1 pump3_time8 + 1 pump3_time9 + 1 pump3_time10 + 1 pump3_time11 
 + 1 pump3_time12 + 1 pump3_time13 + 1 pump3_time14 + 1 pump3_time15 
 + 1 pump3_time16 + 1 pump3_time17 + 1 pump3_time18 + 1 pump3_time19 
 + 1 pump3_time20 + 1 pump3_time21 + 1 pump3_time22 + 1 pump3_time23 
 + 1 pump3_time24  >= 1.0
 pump4_on_at_least_1h_per_day: + 1 pump4_time1 + 1 pump4_time2 + 1 pump4_time3 
 + 1 pump4_time4 + 1 pump4_time5 + 1 pump4_time6 + 1 pump4_time7 
 + 1 pump4_time8 + 1 pump4_time9 + 1 pump4_time10 + 1 pump4_time11 
 + 1 pump4_time12 + 1 pump4_time13 + 1 pump4_time14 + 1 pump4_time15 
 + 1 pump4_time16 + 1 pump4_time17 + 1 pump4_time18 + 1 pump4_time19 
 + 1 pump4_time20 + 1 pump4_time21 + 1 pump4_time22 + 1 pump4_time23 
 + 1 pump4_time24  >= 1.0
 pump5_on_at_least_1h_per_day: + 1 pump5_time1 + 1 pump5_time2 + 1 pump5_time3 
 + 1 pump5_time4 + 1 pump5_time5 + 1 pump5_time6 + 1 pump5_time7 
 + 1 pump5_time8 + 1 pump5_time9 + 1 pump5_time10 + 1 pump5_time11 
 + 1 pump5_time12 + 1 pump5_time13 + 1 pump5_time14 + 1 pump5_time15 
 + 1 pump5_time16 + 1 pump5_time17 + 1 pump5_time18 + 1 pump5_time19 
 + 1 pump5_time20 + 1 pump5_time21 + 1 pump5_time22 + 1 pump5_time23 
 + 1 pump5_time24  >= 1.0
 pump6_on_at_least_1h_per_day: + 1 pump6_time1 + 1 pump6_time2 + 1 pump6_time3 
 + 1 pump6_time4 + 1 pump6_time5 + 1 pump6_time6 + 1 pump6_time7 
 + 1 pump6_time8 + 1 pump6_time9 + 1 pump6_time10 + 1 pump6_time11 
 + 1 pump6_time12 + 1 pump6_time13 + 1 pump6_time14 + 1 pump6_time15 
 + 1 pump6_time16 + 1 pump6_time17 + 1 pump6_time18 + 1 pump6_time19 
 + 1 pump6_time20 + 1 pump6_time21 + 1 pump6_time22 + 1 pump6_time23 
 + 1 pump6_time24  >= 1.0
 pump7_on_at_least_1h_per_day: + 1 pump7_time1 + 1 pump7_time2 + 1 pump7_time3 
 + 1 pump7_time4 + 1 pump7_time5 + 1 pump7_time6 + 1 pump7_time7 
 + 1 pump7_time8 + 1 pump7_time9 + 1 pump7_time10 + 1 pump7_time11 
 + 1 pump7_time12 + 1 pump7_time13 + 1 pump7_time14 + 1 pump7_time15 
 + 1 pump7_time16 + 1 pump7_time17 + 1 pump7_time18 + 1 pump7_time19 
 + 1 pump7_time20 + 1 pump7_time21 + 1 pump7_time22 + 1 pump7_time23 
 + 1 pump7_time24  >= 1.0
 at_least_one_pump_in_reserve_at_time1: + 1 pump1_time1 + 1 pump2_time1 
 + 1 pump3_time1 + 1 pump4_time1 + 1 pump5_time1 + 1 pump6_time1 
 + 1 pump7_time1  <= 6.0
 at_least_one_pump_in_reserve_at_time2: + 1 pump1_time2 + 1 pump2_time2 
 + 1 pump3_time2 + 1 pump4_time2 + 1 pump5_time2 + 1 pump6_time2 
 + 1 pump7_time2  <= 6.0
 at_least_one_pump_in_reserve_at_time3: + 1 pump1_time3 + 1 pump2_time3 
 + 1 pump3_time3 + 1 pump4_time3 + 1 pump5_time3 + 1 pump6_time3 
 + 1 pump7_time3  <= 6.0
 at_least_one_pump_in_reserve_at_time4: + 1 pump1_time4 + 1 pump2_time4 
 + 1 pump3_time4 + 1 pump4_time4 + 1 pump5_time4 + 1 pump6_time4 
 + 1 pump7_time4  <= 6.0
 at_least_one_pump_in_reserve_at_time5: + 1 pump1_time5 + 1 pump2_time5 
 + 1 pump3_time5 + 1 pump4_time5 + 1 pump5_time5 + 1 pump6_time5 
 + 1 pump7_time5  <= 6.0
 at_least_one_pump_in_reserve_at_time6: + 1 pump1_time6 + 1 pump2_time6 
 + 1 pump3_time6 + 1 pump4_time6 + 1 pump5_time6 + 1 pump6_time6 
 + 1 pump7_time6  <= 6.0
 at_least_one_pump_in_reserve_at_time7: + 1 pump1_time7 + 1 pump2_time7 
 + 1 pump3_time7 + 1 pump4_time7 + 1 pump5_time7 + 1 pump6_time7 
 + 1 pump7_time7  <= 6.0
 at_least_one_pump_in_reserve_at_time8: + 1 pump1_time8 + 1 pump2_time8 
 + 1 pump3_time8 + 1 pump4_time8 + 1 pump5_time8 + 1 pump6_time8 
 + 1 pump7_time8  <= 6.0
 at_least_one_pump_in_reserve_at_time9: + 1 pump1_time9 + 1 pump2_time9 
 + 1 pump3_time9 + 1 pump4_time9 + 1 pump5_time9 + 1 pump6_time9 
 + 1 pump7_time9  <= 6.0
 at_least_one_pump_in_reserve_at_time10: + 1 pump1_time10 + 1 pump2_time10 
 + 1 pump3_time10 + 1 pump4_time10 + 1 pump5_time10 + 1 pump6_time10 
 + 1 pump7_time10  <= 6.0
 at_least_one_pump_in_reserve_at_time11: + 1 pump1_time11 + 1 pump2_time11 
 + 1 pump3_time11 + 1 pump4_time11 + 1 pump5_time11 + 1 pump6_time11 
 + 1 pump7_time11  <= 6.0
 at_least_one_pump_in_reserve_at_time12: + 1 pump1_time12 + 1 pump2_time12 
 + 1 pump3_time12 + 1 pump4_time12 + 1 pump5_time12 + 1 pump6_time12 
 + 1 pump7_time12  <= 6.0
 at_least_one_pump_in_reserve_at_time13: + 1 pump1_time13 + 1 pump2_time13 
 + 1 pump3_time13 + 1 pump4_time13 + 1 pump5_time13 + 1 pump6_time13 
 + 1 pump7_time13  <= 6.0
 at_least_one_pump_in_reserve_at_time14: + 1 pump1_time14 + 1 pump2_time14 
 + 1 pump3_time14 + 1 pump4_time14 + 1 pump5_time14 + 1 pump6_time14 
 + 1 pump7_time14  <= 6.0
 at_least_one_pump_in_reserve_at_time15: + 1 pump1_time15 + 1 pump2_time15 
 + 1 pump3_time15 + 1 pump4_time15 + 1 pump5_time15 + 1 pump6_time15 
 + 1 pump7_time15  <= 6.0
 at_least_one_pump_in_reserve_at_time16: + 1 pump1_time16 + 1 pump2_time16 
 + 1 pump3_time16 + 1 pump4_time16 + 1 pump5_time16 + 1 pump6_time16 
 + 1 pump7_time16  <= 6.0
 at_least_one_pump_in_reserve_at_time17: + 1 pump1_time17 + 1 pump2_time17 
 + 1 pump3_time17 + 1 pump4_time17 + 1 pump5_time17 + 1 pump6_time17 
 + 1 pump7_time17  <= 6.0
 at_least_one_pump_in_reserve_at_time18: + 1 pump1_time18 + 1 pump2_time18 
 + 1 pump3_time18 + 1 pump4_time18 + 1 pump5_time18 + 1 pump6_time18 
 + 1 pump7_time18  <= 6.0
 at_least_one_pump_in_reserve_at_time19: + 1 pump1_time19 + 1 pump2_time19 
 + 1 pump3_time19 + 1 pump4_time19 + 1 pump5_time19 + 1 pump6_time19 
 + 1 pump7_time19  <= 6.0
 at_least_one_pump_in_reserve_at_time20: + 1 pump1_time20 + 1 pump2_time20 
 + 1 pump3_time20 + 1 pump4_time20 + 1 pump5_time20 + 1 pump6_time20 
 + 1 pump7_time20  <= 6.0
 at_least_one_pump_in_reserve_at_time21: + 1 pump1_time21 + 1 pump2_time21 
 + 1 pump3_time21 + 1 pump4_time21 + 1 pump5_time21 + 1 pump6_time21 
 + 1 pump7_time21  <= 6.0
 at_least_one_pump_in_reserve_at_time22: + 1 pump1_time22 + 1 pump2_time22 
 + 1 pump3_time22 + 1 pump4_time22 + 1 pump5_time22 + 1 pump6_time22 
 + 1 pump7_time22  <= 6.0
 at_least_one_pump_in_reserve_at_time23: + 1 pump1_time23 + 1 pump2_time23 
 + 1 pump3_time23 + 1 pump4_time23 + 1 pump5_time23 + 1 pump6_time23 
 + 1 pump7_time23  <= 6.0
 at_least_one_pump_in_reserve_at_time24: + 1 pump1_time24 + 1 pump2_time24 
 + 1 pump3_time24 + 1 pump4_time24 + 1 pump5_time24 + 1 pump6_time24 
 + 1 pump7_time24  <= 6.0
 volume_at_time1: + 75 pump1_time1 + 133 pump2_time1 + 157 pump3_time1 
 + 176 pump4_time1 + 59 pump5_time1 + 69 pump6_time1 + 120 pump7_time1 
 - 1 volume_time1  = -505.38
 reservoir_volume_at_time1_at_least_Vmin: + 1 volume_time1  >= 523.5
 reservoir_volume_at_time1_at_most_Vmax: + 1 volume_time1  <= 1500.0
 volume_at_time2: + 1 volume_time1 + 75 pump1_time2 + 133 pump2_time2 
 + 157 pump3_time2 + 176 pump4_time2 + 59 pump5_time2 + 69 pump6_time2 
 + 120 pump7_time2 - 1 volume_time2  = 31.27
 reservoir_volume_at_time2_at_least_Vmin: + 1 volume_time2  >= 523.5
 reservoir_volume_at_time2_at_most_Vmax: + 1 volume_time2  <= 1500.0
 volume_at_time3: + 1 volume_time2 + 75 pump1_time3 + 133 pump2_time3 
 + 157 pump3_time3 + 176 pump4_time3 + 59 pump5_time3 + 69 pump6_time3 
 + 120 pump7_time3 - 1 volume_time3  = 26.22
 reservoir_volume_at_time3_at_least_Vmin: + 1 volume_time3  >= 523.5
 reservoir_volume_at_time3_at_most_Vmax: + 1 volume_time3  <= 1500.0
 volume_at_time4: + 1 volume_time3 + 75 pump1_time4 + 133 pump2_time4 
 + 157 pump3_time4 + 176 pump4_time4 + 59 pump5_time4 + 69 pump6_time4 
 + 120 pump7_time4 - 1 volume_time4  = 27.51
 reservoir_volume_at_time4_at_least_Vmin: + 1 volume_time4  >= 523.5
 reservoir_volume_at_time4_at_most_Vmax: + 1 volume_time4  <= 1500.0
 volume_at_time5: + 1 volume_time4 + 75 pump1_time5 + 133 pump2_time5 
 + 157 pump3_time5 + 176 pump4_time5 + 59 pump5_time5 + 69 pump6_time5 
 + 120 pump7_time5 - 1 volume_time5  = 31.5
 reservoir_volume_at_time5_at_least_Vmin: + 1 volume_time5  >= 523.5
 reservoir_volume_at_time5_at_most_Vmax: + 1 volume_time5  <= 1500.0
 volume_at_time6: + 1 volume_time5 + 75 pump1_time6 + 133 pump2_time6 
 + 157 pump3_time6 + 176 pump4_time6 + 59 pump5_time6 + 69 pump6_time6 
 + 120 pump7_time6 - 1 volume_time6  = 46.18
 reservoir_volume_at_time6_at_least_Vmin: + 1 volume_time6  >= 523.5
 reservoir_volume_at_time6_at_most_Vmax: + 1 volume_time6  <= 1500.0
 volume_at_time7: + 1 volume_time6 + 75 pump1_time7 + 133 pump2_time7 
 + 157 pump3_time7 + 176 pump4_time7 + 59 pump5_time7 + 69 pump6_time7 
 + 120 pump7_time7 - 1 volume_time7  = 69.47
 reservoir_volume_at_time7_at_least_Vmin: + 1 volume_time7  >= 523.5
 reservoir_volume_at_time7_at_most_Vmax: + 1 volume_time7  <= 1500.0
 volume_at_time8: + 1 volume_time7 + 75 pump1_time8 + 133 pump2_time8 
 + 157 pump3_time8 + 176 pump4_time8 + 59 pump5_time8 + 69 pump6_time8 
 + 120 pump7_time8 - 1 volume_time8  = 100.36
 reservoir_volume_at_time8_at_least_Vmin: + 1 volume_time8  >= 523.5
 reservoir_volume_at_time8_at_most_Vmax: + 1 volume_time8  <= 1500.0
 volume_at_time9: + 1 volume_time8 + 75 pump1_time9 + 133 pump2_time9 
 + 157 pump3_time9 + 176 pump4_time9 + 59 pump5_time9 + 69 pump6_time9 
 + 120 pump7_time9 - 1 volume_time9  = 131.85
 reservoir_volume_at_time9_at_least_Vmin: + 1 volume_time9  >= 523.5
 reservoir_volume_at_time9_at_most_Vmax: + 1 volume_time9  <= 1500.0
 volume_at_time10: + 1 volume_time9 + 75 pump1_time10 + 133 pump2_time10 
 + 157 pump3_time10 + 176 pump4_time10 + 59 pump5_time10 + 69 pump6_time10 
 + 120 pump7_time10 - 1 volume_time10  = 148.51
 reservoir_volume_at_time10_at_least_Vmin: + 1 volume_time10  >= 523.5
 reservoir_volume_at_time10_at_most_Vmax: + 1 volume_time10  <= 1500.0
 volume_at_time11: + 1 volume_time10 + 75 pump1_time11 + 133 pump2_time11 
 + 157 pump3_time11 + 176 pump4_time11 + 59 pump5_time11 + 69 pump6_time11 
 + 120 pump7_time11 - 1 volume_time11  = 149.89
 reservoir_volume_at_time11_at_least_Vmin: + 1 volume_time11  >= 523.5
 reservoir_volume_at_time11_at_most_Vmax: + 1 volume_time11  <= 1500.0
 volume_at_time12: + 1 volume_time11 + 75 pump1_time12 + 133 pump2_time12 
 + 157 pump3_time12 + 176 pump4_time12 + 59 pump5_time12 + 69 pump6_time12 
 + 120 pump7_time12 - 1 volume_time12  = 142.21
 reservoir_volume_at_time12_at_least_Vmin: + 1 volume_time12  >= 523.5
 reservoir_volume_at_time12_at_most_Vmax: + 1 volume_time12  <= 1500.0
 volume_at_time13: + 1 volume_time12 + 75 pump1_time13 + 133 pump2_time13 
 + 157 pump3_time13 + 176 pump4_time13 + 59 pump5_time13 + 69 pump6_time13 
 + 120 pump7_time13 - 1 volume_time13  = 132.09
 reservoir_volume_at_time13_at_least_Vmin: + 1 volume_time13  >= 523.5
 reservoir_volume_at_time13_at_most_Vmax: + 1 volume_time13  <= 1500.0
 volume_at_time14: + 1 volume_time13 + 75 pump1_time14 + 133 pump2_time14 
 + 157 pump3_time14 + 176 pump4_time14 + 59 pump5_time14 + 69 pump6_time14 
 + 120 pump7_time14 - 1 volume_time14  = 129.29
 reservoir_volume_at_time14_at_least_Vmin: + 1 volume_time14  >= 523.5
 reservoir_volume_at_time14_at_most_Vmax: + 1 volume_time14  <= 1500.0
 volume_at_time15: + 1 volume_time14 + 75 pump1_time15 + 133 pump2_time15 
 + 157 pump3_time15 + 176 pump4_time15 + 59 pump5_time15 + 69 pump6_time15 
 + 120 pump7_time15 - 1 volume_time15  = 124.06
 reservoir_volume_at_time15_at_least_Vmin: + 1 volume_time15  >= 523.5
 reservoir_volume_at_time15_at_most_Vmax: + 1 volume_time15  <= 1500.0
 volume_at_time16: + 1 volume_time15 + 75 pump1_time16 + 133 pump2_time16 
 + 157 pump3_time16 + 176 pump4_time16 + 59 pump5_time16 + 69 pump6_time16 
 + 120 pump7_time16 - 1 volume_time16  = 114.68
 reservoir_volume_at_time16_at_least_Vmin: + 1 volume_time16  >= 523.5
 reservoir_volume_at_time16_at_most_Vmax: + 1 volume_time16  <= 1500.0
 volume_at_time17: + 1 volume_time16 + 75 pump1_time17 + 133 pump2_time17 
 + 157 pump3_time17 + 176 pump4_time17 + 59 pump5_time17 + 69 pump6_time17 
 + 120 pump7_time17 - 1 volume_time17  = 109.33
 reservoir_volume_at_time17_at_least_Vmin: + 1 volume_time17  >= 523.5
 reservoir_volume_at_time17_at_most_Vmax: + 1 volume_time17  <= 1500.0
 volume_at_time18: + 1 volume_time17 + 75 pump1_time18 + 133 pump2_time18 
 + 157 pump3_time18 + 176 pump4_time18 + 59 pump5_time18 + 69 pump6_time18 
 + 120 pump7_time18 - 1 volume_time18  = 115.76
 reservoir_volume_at_time18_at_least_Vmin: + 1 volume_time18  >= 523.5
 reservoir_volume_at_time18_at_most_Vmax: + 1 volume_time18  <= 1500.0
 volume_at_time19: + 1 volume_time18 + 75 pump1_time19 + 133 pump2_time19 
 + 157 pump3_time19 + 176 pump4_time19 + 59 pump5_time19 + 69 pump6_time19 
 + 120 pump7_time19 - 1 volume_time19  = 126.95
 reservoir_volume_at_time19_at_least_Vmin: + 1 volume_time19  >= 523.5
 reservoir_volume_at_time19_at_most_Vmax: + 1 volume_time19  <= 1500.0
 volume_at_time20: + 1 volume_time19 + 75 pump1_time20 + 133 pump2_time20 
 + 157 pump3_time20 + 176 pump4_time20 + 59 pump5_time20 + 69 pump6_time20 
 + 120 pump7_time20 - 1 volume_time20  = 131.48
 reservoir_volume_at_time20_at_least_Vmin: + 1 volume_time20  >= 523.5
 reservoir_volume_at_time20_at_most_Vmax: + 1 volume_time20  <= 1500.0
 volume_at_time21: + 1 volume_time20 + 75 pump1_time21 + 133 pump2_time21 
 + 157 pump3_time21 + 176 pump4_time21 + 59 pump5_time21 + 69 pump6_time21 
 + 120 pump7_time21 - 1 volume_time21  = 138.86
 reservoir_volume_at_time21_at_least_Vmin: + 1 volume_time21  >= 523.5
 reservoir_volume_at_time21_at_most_Vmax: + 1 volume_time21  <= 1500.0
 volume_at_time22: + 1 volume_time21 + 75 pump1_time22 + 133 pump2_time22 
 + 157 pump3_time22 + 176 pump4_time22 + 59 pump5_time22 + 69 pump6_time22 
 + 120 pump7_time22 - 1 volume_time22  = 131.91
 reservoir_volume_at_time22_at_least_Vmin: + 1 volume_time22  >= 523.5
 reservoir_volume_at_time22_at_most_Vmax: + 1 volume_time22  <= 1500.0
 volume_at_time23: + 1 volume_time22 + 75 pump1_time23 + 133 pump2_time23 
 + 157 pump3_time23 + 176 pump4_time23 + 59 pump5_time23 + 69 pump6_time23 
 + 120 pump7_time23 - 1 volume_time23  = 111.53
 reservoir_volume_at_time23_at_least_Vmin: + 1 volume_time23  >= 523.5
 reservoir_volume_at_time23_at_most_Vmax: + 1 volume_time23  <= 1500.0
 volume_at_time24: + 1 volume_time23 + 75 pump1_time24 + 133 pump2_time24 
 + 157 pump3_time24 + 176 pump4_time24 + 59 pump5_time24 + 69 pump6_time24 
 + 120 pump7_time24 - 1 volume_time24  = 70.43
 reservoir_volume_at_time24_at_least_Vmin: + 1 volume_time24  >= 523.5
 reservoir_volume_at_time24_at_most_Vmax: + 1 volume_time24  <= 1500.0

Bounds
 0.0 <= volume_time1 <= 1e+30
 0.0 <= volume_time2 <= 1e+30
 0.0 <= volume_time3 <= 1e+30
 0.0 <= volume_time4 <= 1e+30
 0.0 <= volume_time5 <= 1e+30
 0.0 <= volume_time6 <= 1e+30
 0.0 <= volume_time7 <= 1e+30
 0.0 <= volume_time8 <= 1e+30
 0.0 <= volume_time9 <= 1e+30
 0.0 <= volume_time10 <= 1e+30
 0.0 <= volume_time11 <= 1e+30
 0.0 <= volume_time12 <= 1e+30
 0.0 <= volume_time13 <= 1e+30
 0.0 <= volume_time14 <= 1e+30
 0.0 <= volume_time15 <= 1e+30
 0.0 <= volume_time16 <= 1e+30
 0.0 <= volume_time17 <= 1e+30
 0.0 <= volume_time18 <= 1e+30
 0.0 <= volume_time19 <= 1e+30
 0.0 <= volume_time20 <= 1e+30
 0.0 <= volume_time21 <= 1e+30
 0.0 <= volume_time22 <= 1e+30
 0.0 <= volume_time23 <= 1e+30
 0.0 <= volume_time24 <= 1e+30

Binary
 pump1_time1 pump2_time1 pump3_time1 pump4_time1 pump5_time1 pump6_time1
  pump7_time1 pump1_time2 pump2_time2 pump3_time2 pump4_time2 pump5_time2
  pump6_time2 pump7_time2 pump1_time3 pump2_time3 pump3_time3 pump4_time3
  pump5_time3 pump6_time3 pump7_time3 pump1_time4 pump2_time4 pump3_time4
  pump4_time4 pump5_time4 pump6_time4 pump7_time4 pump1_time5 pump2_time5
  pump3_time5 pump4_time5 pump5_time5 pump6_time5 pump7_time5 pump1_time6
  pump2_time6 pump3_time6 pump4_time6 pump5_time6 pump6_time6 pump7_time6
  pump1_time7 pump2_time7 pump3_time7 pump4_time7 pump5_time7 pump6_time7
  pump7_time7 pump1_time8 pump2_time8 pump3_time8 pump4_time8 pump5_time8
  pump6_time8 pump7_time8 pump1_time9 pump2_time9 pump3_time9 pump4_time9
  pump5_time9 pump6_time9 pump7_time9 pump1_time10 pump2_time10 pump3_time10
  pump4_time10 pump5_time10 pump6_time10 pump7_time10 pump1_time11 pump2_time11
  pump3_time11 pump4_time11 pump5_time11 pump6_time11 pump7_time11 pump1_time12
  pump2_time12 pump3_time12 pump4_time12 pump5_time12 pump6_time12 pump7_time12
  pump1_time13 pump2_time13 pump3_time13 pump4_time13 pump5_time13 pump6_time13
  pump7_time13 pump1_time14 pump2_time14 pump3_time14 pump4_time14 pump5_time14
  pump6_time14 pump7_time14 pump1_time15 pump2_time15 pump3_time15 pump4_time15
  pump5_time15 pump6_time15 pump7_time15 pump1_time16 pump2_time16 pump3_time16
  pump4_time16 pump5_time16 pump6_time16 pump7_time16 pump1_time17 pump2_time17
  pump3_time17 pump4_time17 pump5_time17 pump6_time17 pump7_time17 pump1_time18
  pump2_time18 pump3_time18 pump4_time18 pump5_time18 pump6_time18 pump7_time18
  pump1_time19 pump2_time19 pump3_time19 pump4_time19 pump5_time19 pump6_time19
  pump7_time19 pump1_time20 pump2_time20 pump3_time20 pump4_time20 pump5_time20
  pump6_time20 pump7_time20 pump1_time21 pump2_time21 pump3_time21 pump4_time21
  pump5_time21 pump6_time21 pump7_time21 pump1_time22 pump2_time22 pump3_time22
  pump4_time22 pump5_time22 pump6_time22 pump7_time22 pump1_time23 pump2_time23
  pump3_time23 pump4_time23 pump5_time23 pump6_time23 pump7_time23 pump1_time24
  pump2_time24 pump3_time24 pump4_time24 pump5_time24 pump6_time24 pump7_time24
General

End
